datasets/2-dimensional/CL_03_25_06.vbp
2
1000 1000 
25
641 275 30
376 287 72
448 602 4
391 555 88
537 279 54
221 706 64
775 571 90
733 606 26
629 545 94
595 321 28
365 668 72
472 718 49
449 406 54
631 465 19
349 627 28
339 226 61
332 597 84
262 271 23
263 382 67
668 464 53
210 249 54
223 272 16
439 666 9
793 563 54
217 497 77
