datasets/2-dimensional/CL_03_25_06.txt
1000 1000 
0 30 641 275 
1 72 376 287 
2 4 448 602 
3 88 391 555 
4 54 537 279 
5 64 221 706 
6 90 775 571 
7 26 733 606 
8 94 629 545 
9 28 595 321 
10 72 365 668 
11 49 472 718 
12 54 449 406 
13 19 631 465 
14 28 349 627 
15 61 339 226 
16 84 332 597 
17 23 262 271 
18 67 263 382 
19 53 668 464 
20 54 210 249 
21 16 223 272 
22 9 439 666 
23 54 793 563 
24 77 217 497 
